 Code  3131
 Dimension, Fixed Cost
   100        3000
 Facility, Client, Transportation Cost
     1        8           1
     1       28           2
     1       32           1
     1       33           2
     1       37           4
     1       40           0
     1       55           2
     1       67           0
     1       69           3
     1       89           3
     2        1           3
     2        2           1
     2       29           3
     2       30           1
     2       58           0
     2       66           4
     2       67           1
     2       70           4
     2       87           2
     2       90           0
     3       14           0
     3       30           4
     3       31           4
     3       33           4
     3       38           3
     3       51           0
     3       59           3
     3       62           4
     3       76           4
     3       93           2
     4        1           4
     4       10           0
     4       15           0
     4       22           2
     4       29           1
     4       52           2
     4       54           1
     4       67           2
     4       74           3
     4       87           4
     5       13           4
     5       25           4
     5       27           2
     5       35           4
     5       43           3
     5       51           4
     5       53           4
     5       59           3
     5       85           4
     5       86           4
     6        3           4
     6        8           1
     6       37           3
     6       39           1
     6       43           4
     6       47           0
     6       76           1
     6       79           3
     6       86           1
     6       89           0
     7        1           4
     7       26           3
     7       30           1
     7       36           4
     7       37           1
     7       41           2
     7       58           4
     7       61           0
     7       77           4
     7       79           0
     8        1           4
     8        2           1
     8        5           4
     8        8           2
     8       35           1
     8       37           2
     8       40           2
     8       45           2
     8       50           1
     8       78           4
     9        2           1
     9        6           4
     9       11           2
     9       18           2
     9       25           4
     9       27           4
     9       56           4
     9       68           0
     9       75           2
     9       99           4
    10       18           4
    10       30           2
    10       37           4
    10       42           3
    10       43           3
    10       44           1
    10       54           1
    10       56           2
    10       59           4
    10       79           0
    11       15           2
    11       26           4
    11       39           1
    11       42           3
    11       47           4
    11       86           0
    11       92           4
    11       97           3
    11       99           2
    11      100           3
    12       13           3
    12       25           2
    12       26           0
    12       31           1
    12       46           0
    12       84           3
    12       87           1
    12       88           2
    12       94           0
    12       95           1
    13        6           3
    13        9           0
    13       14           3
    13       25           4
    13       47           1
    13       49           0
    13       69           2
    13       82           3
    13       88           0
    13      100           0
    14        9           0
    14       22           4
    14       29           4
    14       44           1
    14       70           0
    14       72           3
    14       89           4
    14       95           4
    14       97           3
    14      100           2
    15        1           2
    15        3           1
    15        5           1
    15       11           3
    15       20           2
    15       24           0
    15       48           2
    15       59           4
    15       61           1
    15       81           0
    16       13           1
    16       15           0
    16       27           4
    16       34           2
    16       41           4
    16       48           3
    16       64           1
    16       66           2
    16       75           3
    16       81           1
    17        6           3
    17       17           0
    17       21           2
    17       26           0
    17       27           4
    17       41           4
    17       43           2
    17       51           4
    17       90           1
    17       92           1
    18       16           1
    18       29           2
    18       49           4
    18       60           3
    18       78           2
    18       83           2
    18       90           3
    18       93           0
    18       95           0
    18       97           2
    19       15           2
    19       16           2
    19       29           1
    19       42           0
    19       44           0
    19       61           2
    19       66           3
    19       83           0
    19       84           4
    19       93           4
    20        5           4
    20       10           1
    20       16           2
    20       24           2
    20       26           3
    20       56           4
    20       62           2
    20       65           1
    20       67           3
    20       85           1
    21        4           2
    21       16           0
    21       17           0
    21       33           4
    21       36           3
    21       42           1
    21       61           3
    21       74           1
    21       84           0
    21       90           3
    22       19           2
    22       29           1
    22       33           0
    22       37           3
    22       52           1
    22       60           3
    22       64           4
    22       65           2
    22       66           3
    22       85           3
    23        3           2
    23        7           0
    23       12           1
    23       23           3
    23       47           1
    23       52           0
    23       64           3
    23       80           2
    23       92           3
    23       97           1
    24        4           4
    24        6           3
    24       15           0
    24       25           3
    24       38           3
    24       48           0
    24       55           4
    24       69           3
    24       76           4
    24       87           3
    25        8           2
    25       17           3
    25       29           4
    25       34           2
    25       52           3
    25       61           2
    25       64           1
    25       74           2
    25       76           3
    25       79           2
    26       21           1
    26       50           4
    26       60           4
    26       64           4
    26       71           0
    26       80           4
    26       88           0
    26       89           4
    26       90           4
    26       94           0
    27        5           3
    27        6           4
    27       12           2
    27       36           4
    27       49           1
    27       65           1
    27       66           1
    27       73           0
    27       82           4
    27       94           4
    28        8           0
    28       26           4
    28       34           1
    28       44           1
    28       64           4
    28       70           4
    28       73           3
    28       79           1
    28       87           0
    28       94           4
    29        1           4
    29        6           3
    29       14           4
    29       28           1
    29       30           1
    29       31           4
    29       59           4
    29       61           4
    29       80           2
    29       91           4
    30        2           4
    30       12           0
    30       15           0
    30       24           3
    30       28           0
    30       32           4
    30       33           2
    30       53           3
    30       78           2
    30       91           1
    31       11           0
    31       31           2
    31       37           1
    31       44           2
    31       56           2
    31       57           4
    31       66           3
    31       72           4
    31       73           0
    31       84           0
    32        3           1
    32        5           2
    32       26           3
    32       29           1
    32       50           4
    32       60           3
    32       74           1
    32       80           3
    32       89           0
    32       99           2
    33        7           4
    33       39           3
    33       40           4
    33       47           4
    33       48           3
    33       63           2
    33       71           2
    33       75           2
    33       86           1
    33       97           3
    34       11           2
    34       14           3
    34       18           0
    34       19           3
    34       21           4
    34       23           2
    34       27           1
    34       52           1
    34       68           2
    34       75           0
    35        9           2
    35       12           4
    35       16           1
    35       38           4
    35       52           1
    35       77           4
    35       92           4
    35       94           2
    35       95           0
    35       96           1
    36       15           2
    36       16           1
    36       33           3
    36       34           3
    36       36           4
    36       40           1
    36       44           2
    36       56           2
    36       65           3
    36       97           4
    37       19           0
    37       25           0
    37       27           4
    37       29           1
    37       43           0
    37       72           1
    37       83           3
    37       86           2
    37       93           1
    37       99           1
    38        3           3
    38        9           0
    38       30           3
    38       41           2
    38       47           0
    38       52           1
    38       54           3
    38       89           4
    38       93           2
    38       96           1
    39       19           4
    39       30           3
    39       38           4
    39       57           1
    39       74           3
    39       77           0
    39       80           0
    39       91           2
    39       92           2
    39       97           3
    40        8           1
    40       12           4
    40       13           4
    40       39           0
    40       49           3
    40       53           0
    40       78           4
    40       81           2
    40       93           0
    40       95           4
    41        9           3
    41       28           3
    41       37           4
    41       44           1
    41       59           4
    41       63           0
    41       80           0
    41       83           3
    41       86           1
    41       99           0
    42        4           4
    42       12           2
    42       16           3
    42       43           1
    42       50           4
    42       81           1
    42       83           2
    42       91           2
    42       99           1
    42      100           3
    43        2           4
    43        3           0
    43       33           4
    43       40           4
    43       42           3
    43       48           2
    43       64           2
    43       72           3
    43       90           4
    43       95           0
    44        2           1
    44       20           2
    44       21           4
    44       24           2
    44       37           4
    44       46           1
    44       57           1
    44       65           0
    44       74           3
    44       80           3
    45       15           1
    45       18           4
    45       20           4
    45       30           4
    45       35           4
    45       45           1
    45       47           4
    45       87           2
    45       98           0
    45      100           4
    46        4           2
    46       10           3
    46       39           3
    46       40           0
    46       47           3
    46       56           2
    46       70           2
    46       72           3
    46       77           1
    46       79           2
    47        2           1
    47        8           0
    47        9           1
    47       35           2
    47       43           0
    47       68           0
    47       83           0
    47       86           1
    47       89           4
    47       94           4
    48        5           2
    48       19           2
    48       25           1
    48       36           1
    48       39           0
    48       43           3
    48       54           3
    48       67           3
    48       89           1
    48       97           1
    49        4           3
    49       10           3
    49       14           1
    49       23           1
    49       42           4
    49       60           3
    49       71           0
    49       73           0
    49       75           0
    49       83           2
    50        8           3
    50       13           1
    50       26           0
    50       36           3
    50       52           2
    50       53           2
    50       59           1
    50       69           4
    50       74           3
    50       75           0
    51        6           0
    51        7           1
    51       63           1
    51       64           4
    51       66           4
    51       69           1
    51       73           4
    51       77           4
    51       78           0
    51      100           1
    52       16           4
    52       21           1
    52       22           2
    52       40           3
    52       54           1
    52       59           2
    52       67           2
    52       70           3
    52       79           1
    52       95           4
    53        8           4
    53       11           2
    53       17           4
    53       39           0
    53       43           3
    53       47           2
    53       49           1
    53       71           2
    53       86           1
    53       92           4
    54        7           4
    54        9           3
    54       18           1
    54       26           2
    54       43           4
    54       47           3
    54       59           0
    54       82           1
    54       90           3
    54       91           1
    55       16           3
    55       39           1
    55       44           1
    55       46           1
    55       50           4
    55       52           3
    55       54           0
    55       56           1
    55       90           3
    55       93           3
    56       15           0
    56       24           4
    56       56           0
    56       61           1
    56       64           3
    56       65           2
    56       74           4
    56       75           1
    56       80           4
    56       83           0
    57        8           3
    57       18           2
    57       25           0
    57       29           1
    57       41           4
    57       70           3
    57       81           1
    57       86           0
    57       94           2
    57      100           0
    58        7           3
    58       27           0
    58       30           4
    58       45           1
    58       47           0
    58       54           4
    58       74           1
    58       76           4
    58       80           3
    58       82           3
    59       13           0
    59       20           2
    59       29           4
    59       49           0
    59       51           2
    59       65           1
    59       75           1
    59       81           1
    59       86           0
    59       96           2
    60        4           4
    60       18           4
    60       25           4
    60       29           2
    60       41           3
    60       45           4
    60       62           1
    60       74           4
    60       75           3
    60       90           2
    61        2           1
    61       14           3
    61       19           0
    61       21           2
    61       44           0
    61       45           4
    61       49           3
    61       60           0
    61       78           2
    61       98           3
    62       15           0
    62       27           3
    62       40           4
    62       41           2
    62       58           3
    62       63           4
    62       64           2
    62       66           4
    62       70           1
    62       80           2
    63        5           3
    63       11           2
    63       20           0
    63       26           4
    63       31           1
    63       36           4
    63       64           2
    63       65           4
    63       73           3
    63       90           0
    64        1           3
    64        3           0
    64       17           1
    64       18           0
    64       19           4
    64       34           1
    64       40           3
    64       76           2
    64       78           1
    64       92           4
    65        9           3
    65       17           0
    65       24           0
    65       28           4
    65       45           3
    65       72           4
    65       74           2
    65       76           3
    65       81           0
    65       95           2
    66        4           4
    66        7           1
    66       22           4
    66       24           1
    66       35           4
    66       59           1
    66       68           4
    66       72           3
    66       81           0
    66      100           2
    67        1           4
    67        6           1
    67       23           1
    67       28           2
    67       35           4
    67       58           4
    67       64           4
    67       82           2
    67       90           4
    67       98           1
    68       21           3
    68       26           2
    68       34           4
    68       36           1
    68       37           2
    68       46           1
    68       56           1
    68       80           4
    68       84           1
    68       98           2
    69        1           0
    69       35           4
    69       65           3
    69       75           3
    69       76           0
    69       77           4
    69       81           3
    69       85           0
    69       91           1
    69       92           3
    70        4           4
    70       16           3
    70       25           0
    70       44           4
    70       58           1
    70       66           0
    70       78           4
    70       82           3
    70       88           3
    70       97           2
    71        6           0
    71       18           2
    71       42           4
    71       43           4
    71       59           2
    71       62           3
    71       64           2
    71       87           3
    71       91           0
    71       98           0
    72       11           2
    72       14           0
    72       39           0
    72       42           0
    72       52           3
    72       61           2
    72       78           0
    72       79           1
    72       96           1
    72       99           2
    73        3           1
    73       16           4
    73       23           0
    73       32           3
    73       48           0
    73       50           4
    73       55           0
    73       66           2
    73       69           3
    73       81           2
    74        3           4
    74        7           0
    74       10           4
    74       11           2
    74       20           4
    74       29           0
    74       37           4
    74       76           3
    74       80           2
    74       86           0
    75        5           0
    75        6           4
    75       12           0
    75       35           4
    75       42           1
    75       49           4
    75       52           4
    75       80           2
    75       84           2
    75       86           0
    76       10           1
    76       17           0
    76       27           2
    76       28           3
    76       53           1
    76       55           1
    76       63           4
    76       90           3
    76       97           1
    76       98           1
    77        6           2
    77       18           1
    77       21           3
    77       28           3
    77       34           3
    77       42           3
    77       55           2
    77       75           0
    77       84           0
    77      100           4
    78       30           1
    78       33           1
    78       38           2
    78       39           3
    78       43           1
    78       45           2
    78       58           1
    78       59           4
    78       70           0
    78       82           1
    79        9           3
    79       25           3
    79       33           4
    79       38           3
    79       70           4
    79       80           3
    79       84           1
    79       91           3
    79       92           3
    79       94           1
    80       31           0
    80       32           0
    80       37           2
    80       39           3
    80       41           1
    80       60           0
    80       68           3
    80       72           2
    80       85           2
    80       90           1
    81       10           2
    81       12           2
    81       16           1
    81       43           2
    81       51           2
    81       58           1
    81       85           3
    81       86           3
    81       88           2
    81       98           3
    82       12           1
    82       17           0
    82       46           0
    82       50           4
    82       54           2
    82       62           2
    82       66           4
    82       72           4
    82       75           4
    82       77           3
    83       15           4
    83       17           3
    83       21           2
    83       24           1
    83       35           3
    83       41           2
    83       45           4
    83       52           0
    83       82           0
    83       93           4
    84        4           4
    84       18           0
    84       23           0
    84       29           0
    84       41           3
    84       51           3
    84       59           0
    84       74           4
    84       81           0
    84       84           2
    85        8           0
    85       11           0
    85       13           3
    85       27           4
    85       37           3
    85       43           2
    85       50           2
    85       75           2
    85       78           1
    85       90           0
    86       11           3
    86       19           3
    86       27           3
    86       36           1
    86       40           1
    86       65           0
    86       82           3
    86       91           0
    86       93           0
    86       99           2
    87       17           2
    87       28           1
    87       35           3
    87       45           1
    87       65           3
    87       70           1
    87       81           0
    87       83           2
    87       88           4
    87       91           3
    88        9           1
    88       11           4
    88       21           0
    88       22           3
    88       24           0
    88       53           2
    88       62           1
    88       77           3
    88       81           1
    88       89           4
    89        6           3
    89        8           4
    89       16           0
    89       23           3
    89       32           0
    89       43           4
    89       51           0
    89       55           4
    89       61           4
    89       70           1
    90       14           2
    90       17           1
    90       34           2
    90       38           1
    90       53           4
    90       59           0
    90       63           3
    90       80           4
    90       90           2
    90       98           0
    91       10           1
    91       22           1
    91       24           3
    91       43           1
    91       61           1
    91       70           1
    91       75           3
    91       80           0
    91       84           0
    91       88           0
    92        4           2
    92        8           1
    92       30           3
    92       32           0
    92       42           0
    92       56           3
    92       75           2
    92       80           4
    92       86           4
    92       96           4
    93        8           1
    93       19           2
    93       26           1
    93       34           1
    93       36           3
    93       49           3
    93       88           3
    93       90           4
    93       92           3
    93       96           1
    94        2           4
    94       11           3
    94       21           4
    94       57           2
    94       58           3
    94       67           0
    94       69           4
    94       70           0
    94       78           4
    94       86           4
    95        6           3
    95        7           3
    95       10           0
    95       15           1
    95       48           0
    95       49           1
    95       63           3
    95       71           0
    95       84           1
    95       98           4
    96       10           0
    96       11           1
    96       15           4
    96       20           0
    96       30           1
    96       43           0
    96       51           0
    96       81           3
    96       85           4
    96      100           0
    97        3           0
    97       11           3
    97       19           1
    97       20           4
    97       24           0
    97       31           1
    97       40           2
    97       44           4
    97       64           1
    97       91           2
    98        1           4
    98        4           1
    98        8           0
    98        9           3
    98       14           2
    98       47           0
    98       73           2
    98       86           2
    98       96           0
    98       99           1
    99        5           4
    99       10           4
    99       15           2
    99       20           4
    99       21           1
    99       31           4
    99       36           1
    99       45           1
    99       84           1
    99      100           0
   100        2           0
   100       12           1
   100       22           4
   100       35           1
   100       41           4
   100       42           0
   100       47           1
   100       51           2
   100       53           2
   100       73           4
